
Gurobi 6.5.2 (win64) logging started 07/24/16 17:53:07


Gurobi 6.5.2 (win64) logging started 07/24/16 17:53:07

Optimize a model with 3688 rows, 359 columns and 7653 nonzeros
Coefficient statistics:
  Matrix range    [1e+00, 1e+00]
  Objective range [2e+00, 4e+02]
  Bounds range    [1e+00, 1e+00]
  RHS range       [1e+00, 1e+00]
Found heuristic solution: objective -0
Presolve removed 3545 rows and 50 columns
Presolve time: 0.02s
Presolved: 143 rows, 309 columns, 1198 nonzeros
Variable types: 0 continuous, 309 integer (309 binary)

Root relaxation: objective 2.412000e+03, 233 iterations, 0.00 seconds

    Nodes    |    Current Node    |     Objective Bounds      |     Work
 Expl Unexpl |  Obj  Depth IntInf | Incumbent    BestBd   Gap | It/Node Time

*    0     0               0    2412.0000000 2412.00000  0.00%     -    0s

Explored 0 nodes (233 simplex iterations) in 0.02 seconds
Thread count was 8 (of 8 available processors)

Optimal solution found (tolerance 1.00e-04)
Best objective 2.412000000000e+03, best bound 2.412000000000e+03, gap 0.0%

Wrote requested result file 'H1\instance29\\Results29.lp'

